80 22 54 79 23 78 17 13 19 48 82 68 28 29 63 95 91 20 59 30 92 46 3 47 77 66 86 56 8 76 4 6 16 64 69 57 32 71 5 36 33 9 85 60 45 96 83 88 98 72 35 7 24 44 43 55 14 37 90 70 39 25 51 87 34 40 26 74 62 2 75 41 18 52 94 58 93 97 38 89 21 99 84 27 10 81 53 49 67 12 65 61 73 50 42 0 31 15 1 11